RT is False
Default write of storage_offers_DA.csv just to have a file (but constraint should be inactive)
Reading model...
...model read.
creating competitive generators file...
...competitive generators recorded.
Loading data...
.. day-ahead data read.
Compiling instance...
...instance created.
Creating Offer Mitigation (model will solve as dispatch if TRUE)...
NOTE: storage offers will not be mitigated
...storage offer mitigation file created
Converting model to MPEC...
...converted
NOTE: initial MIP solve with only storage competitive to get feasible solution
Solving...

Welcome to IBM(R) ILOG(R) CPLEX(R) Interactive Optimizer 12.9.0.0
  with Simplex, Mixed Integer & Barrier Optimizers
5725-A06 5725-A29 5724-Y48 5724-Y49 5724-Y54 5724-Y55 5655-Y21
Copyright IBM Corp. 1988, 2019.  All Rights Reserved.

Type 'help' for a list of available commands.
Type 'help' followed by a command name for more
information on commands.

CPLEX> Logfile 'cplex.log' closed.
Logfile 'C:\Users\llavin\Desktop\test919\logs\tmpezddyvox.cplex.log' open.
CPLEX> New value for parallel optimization mode: -1
CPLEX> New value for mixed integer optimality gap tolerance: 0.01
CPLEX> New value for integrality tolerance: 1e-09
CPLEX> New value for feasibility tolerance: 0.01
CPLEX> New value for deterministic time limit in ticks: 75000
CPLEX> Problem 'C:\Users\llavin\Desktop\test919\logs\tmpb70840z3.pyomo.lp' read.
Read time = 0.23 sec. (14.73 ticks)
CPLEX> Problem name         : C:\Users\llavin\Desktop\test919\logs\tmpb70840z3.pyomo.lp
Objective sense      : Maximize
Variables            :   53805  [Nneg: 1,  Box: 22000,  Free: 4464,
                                 Binary: 27340]
Objective nonzeros   :    9056
Linear constraints   :  123205  [Less: 41346,  Greater: 59096,  Equal: 22763]
  Nonzeros           :  291780
  RHS nonzeros       :   67518

Variables            : Min LB: -5000.000        Max UB: 1000000.       
Objective nonzeros   : Min   : 0.1000000        Max   : 2500.000       
Linear constraints   :
  Nonzeros           : Min   : 0.1000000        Max   : 1000000.       
  RHS nonzeros       : Min   : 0.1000000        Max   : 1000000.       
CPLEX> CPXPARAM_Parallel                                -1
CPXPARAM_Simplex_Tolerances_Feasibility          0.01
CPXPARAM_DetTimeLimit                            75000
CPXPARAM_MIP_Tolerances_MIPGap                   0.01
CPXPARAM_MIP_Tolerances_Integrality              1.0000000000000001e-09
Tried aggregator 3 times.
MIP Presolve eliminated 88598 rows and 18946 columns.
MIP Presolve added 3402 rows and 0 columns.
MIP Presolve modified 24872 coefficients.
Aggregator did 12978 substitutions.
Reduced MIP has 25031 rows, 21349 columns, and 71315 nonzeros.
Reduced MIP has 8441 binaries, 0 generals, 0 SOSs, and 0 indicators.
Presolve time = 0.30 sec. (176.31 ticks)
Probing fixed 396 vars, tightened 2847 bounds.
Probing time = 1.23 sec. (902.71 ticks)
Tried aggregator 2 times.
MIP Presolve eliminated 892 rows and 792 columns.
MIP Presolve modified 2240 coefficients.
Aggregator did 40 substitutions.
Reduced MIP has 24099 rows, 20517 columns, and 68619 nonzeros.
Reduced MIP has 8045 binaries, 0 generals, 0 SOSs, and 0 indicators.
Presolve time = 0.11 sec. (71.38 ticks)
Probing time = 0.05 sec. (15.91 ticks)
Clique table members: 6348.
MIP emphasis: balance optimality and feasibility.
MIP search method: dynamic search.
Parallel mode: opportunistic, using up to 32 threads.
Root relaxation solution time = 0.34 sec. (279.51 ticks)

        Nodes                                         Cuts/
   Node  Left     Objective  IInf  Best Integer    Best Bound    ItCnt     Gap

      0     0     4045.7859  1802                   4045.7859     6862         
      0     0     4045.7859   632                   Cuts: 784     7215         
      0     0     4045.7859   499                   Cuts: 471     7437         
      0     0     4045.7859   424                   Cuts: 250     7574         
      0     0     4045.7859   385                   Cuts: 153     7645         
      0     0     4045.7859   353                   Cuts: 110     7704         
      0     0     4045.7859   342                    Cuts: 78     7726         
      0     0     4045.7859   334                    Cuts: 51     7740         
      0     0     4045.7859   324                    Cuts: 37     7750         
      0     0     4045.7859   320                    Cuts: 34     7755         
      0     0     4045.7859   320                    Cuts: 28     7757         
      0    15    infeasible                          Cuts: 11     8008         
Elapsed time = 10.58 sec. (6328.71 ticks, tree = 0.02 MB, solutions = 0)
    493   417     1258.9767   315                   4025.1272    15647         
   1067   510     3483.4553   285                   4025.1272    19319         
   1743  1175     4036.6399   258                   4025.1272    29695         
   2392  1352     1022.9598   252                   4025.1272    30210         
   3499  1842     3477.6698   236                   4025.1272    32433         
   4640  2638     3477.6698   235                   4025.1272    35535         
   5453  4239     3436.7482   248                   4025.1272    36883         
   6186  4988     4040.0004   249                   4025.1272    37874         
   7002  5964     4040.0004   220                   4025.1272    40083         
*  7775+ 5873                        -7394.4099     4025.1272           154.43%
Elapsed time = 23.72 sec. (8635.43 ticks, tree = 59.93 MB, solutions = 4)
*  8950  6398      integral     0     4035.5067     4025.1272    40313   -0.26%

Clique cuts applied:  21
Cover cuts applied:  1
Implied bound cuts applied:  61
Flow cuts applied:  491
Mixed integer rounding cuts applied:  53
Gomory fractional cuts applied:  43

Root node processing (before b&c):
  Real time             =    9.31 sec. (6322.23 ticks)
Parallel b&c, 32 threads:
  Real time             =   15.27 sec. (2798.27 ticks)
  Sync time (average)   =    1.11 sec.
  Wait time (average)   =    0.00 sec.
                          ------------
Total (root+branch&cut) =   24.58 sec. (9120.50 ticks)

Solution pool: 5 solutions saved.

MIP - Integer optimal solution:  Objective =  4.0355066711e+03
Solution time =   24.63 sec.  Iterations = 41476  Nodes = 9038
Deterministic time = 9120.65 ticks  (370.38 ticks/sec)

CPLEX> Incumbent solution written to file 'C:\Users\llavin\Desktop\test919\logs\tmpk3xmdmqd.cplex.sol'.
CPLEX> NOTE: no warmstart specified for MIP iteration, default behavior is true
NOTE: resolving with all competitive generators using storage-only solution to warmstart
Solving...

Welcome to IBM(R) ILOG(R) CPLEX(R) Interactive Optimizer 12.9.0.0
  with Simplex, Mixed Integer & Barrier Optimizers
5725-A06 5725-A29 5724-Y48 5724-Y49 5724-Y54 5724-Y55 5655-Y21
Copyright IBM Corp. 1988, 2019.  All Rights Reserved.

Type 'help' for a list of available commands.
Type 'help' followed by a command name for more
information on commands.

CPLEX> Logfile 'cplex.log' closed.
Logfile 'C:\Users\llavin\Desktop\test919\logs\tmps9xk76e3.cplex.log' open.
CPLEX> New value for parallel optimization mode: -1
CPLEX> New value for mixed integer optimality gap tolerance: 0.01
CPLEX> New value for integrality tolerance: 1e-09
CPLEX> New value for feasibility tolerance: 0.01
CPLEX> New value for deterministic time limit in ticks: 75000
CPLEX> Problem 'C:\Users\llavin\Desktop\test919\logs\tmp9movzg9x.pyomo.lp' read.
Read time = 0.23 sec. (14.75 ticks)
CPLEX> MIP start file 'C:\Users\llavin\Desktop\test919\logs\tmpificzhry.cplex.mst' read.
CPLEX> Problem name         : C:\Users\llavin\Desktop\test919\logs\tmp9movzg9x.pyomo.lp
Objective sense      : Maximize
Variables            :   54525  [Nneg: 1,  Box: 22720,  Free: 4464,
                                 Binary: 27340]
Objective nonzeros   :    9754
Linear constraints   :  123205  [Less: 41346,  Greater: 59096,  Equal: 22763]
  Nonzeros           :  291780
  RHS nonzeros       :   67518

Variables            : Min LB: -5000.000        Max UB: 1000000.       
Objective nonzeros   : Min   : 0.1000000        Max   : 2500.000       
Linear constraints   :
  Nonzeros           : Min   : 0.1000000        Max   : 1000000.       
  RHS nonzeros       : Min   : 0.1000000        Max   : 1000000.       
CPLEX> CPXPARAM_Parallel                                -1
CPXPARAM_Simplex_Tolerances_Feasibility          0.01
CPXPARAM_DetTimeLimit                            75000
CPXPARAM_MIP_Tolerances_MIPGap                   0.01
CPXPARAM_MIP_Tolerances_Integrality              1.0000000000000001e-09
Warning:  No solution found from 1 MIP starts.
Retaining values of one MIP start for possible repair.
Tried aggregator 3 times.
MIP Presolve eliminated 88598 rows and 19666 columns.
MIP Presolve added 3402 rows and 0 columns.
MIP Presolve modified 24872 coefficients.
Aggregator did 12978 substitutions.
Reduced MIP has 25031 rows, 21349 columns, and 71315 nonzeros.
Reduced MIP has 8441 binaries, 0 generals, 0 SOSs, and 0 indicators.
Presolve time = 0.30 sec. (176.68 ticks)
Probing fixed 396 vars, tightened 2847 bounds.
Probing time = 1.22 sec. (902.71 ticks)
Tried aggregator 2 times.
MIP Presolve eliminated 892 rows and 792 columns.
MIP Presolve modified 2240 coefficients.
Aggregator did 40 substitutions.
Reduced MIP has 24099 rows, 20517 columns, and 68619 nonzeros.
Reduced MIP has 8045 binaries, 0 generals, 0 SOSs, and 0 indicators.
Presolve time = 0.09 sec. (71.38 ticks)
Probing time = 0.05 sec. (15.91 ticks)
Clique table members: 6348.
MIP emphasis: balance optimality and feasibility.
MIP search method: dynamic search.
Parallel mode: opportunistic, using up to 32 threads.
Root relaxation solution time = 0.47 sec. (340.14 ticks)

        Nodes                                         Cuts/
   Node  Left     Objective  IInf  Best Integer    Best Bound    ItCnt     Gap

      0     0    46162.6156  1816                  46162.6156     7320         
      0     0    46161.7864   605                   Cuts: 798     7721         
      0     0    46159.9286   464                   Cuts: 497     7993         
      0     0    46159.7378   378                   Cuts: 294     8112         
      0     0    46158.0300   352                    Cuts: 98     8159         
      0     0    46158.0300   337                    Cuts: 64     8186         
      0     0    46158.0300   325                    Cuts: 51     8210         
      0     0    46158.0300   314                    Cuts: 49     8223         
      0     0    46158.0300   315                    Cuts: 33     8230         
      0     0    46158.0300   309                    Cuts: 41     8239         
Repair heuristic found nothing.
      0     5    45822.5657   300                    Cuts: 13     8254         
Elapsed time = 12.22 sec. (6960.50 ticks, tree = 0.02 MB, solutions = 0)
    433    78    46127.6225   296                  46137.2334     8885         
   1039   269    44023.0631   253                  46137.2334    11257         
   1783   652    43997.5247   255                  46137.2334    14014         
   2939  1524    45491.5402   257                  46137.2334    17089         
   3976  2496    24345.8135   243                  46137.2334    20855         
   4702  3319    infeasible                        46137.2334    22795         
   5433  3586    46074.4208   275                  46137.2334    25512         
*  5577+ 4579                        44006.5230    46137.2334             4.84%
   6330  4711    46143.1289   233    44434.6273    46137.2334    40876    3.83%
   8690  5369    46143.2949   185    44434.6273    46137.2334    50684    3.83%
Elapsed time = 26.67 sec. (9877.81 ticks, tree = 40.82 MB, solutions = 3)
*  8897  5157      integral     0    44592.5503    46137.2334    50102    3.46%
   8902  6403    46134.3041     6    44592.5503    46137.2334    59412    3.46%
* 10214   158      integral     0    45770.3503    46132.2696    60249    0.79%
* 10331   156      integral     0    45855.7197    46132.2696    60209    0.60%
* 10763   140      integral     0    45874.9083    46132.2696    60041    0.56%
  11141   229    45844.9103     8    45874.9083    46132.2696    60588    0.56%

Cover cuts applied:  3
Flow cuts applied:  8
Mixed integer rounding cuts applied:  1
Gomory fractional cuts applied:  6

Root node processing (before b&c):
  Real time             =   10.13 sec. (6917.01 ticks)
Parallel b&c, 32 threads:
  Real time             =   30.00 sec. (8719.30 ticks)
  Sync time (average)   =    1.81 sec.
  Wait time (average)   =    0.24 sec.
                          ------------
Total (root+branch&cut) =   40.13 sec. (15636.31 ticks)

Solution pool: 12 solutions saved.

MIP - Integer optimal, tolerance (0.01/1e-06):  Objective =  4.5874908271e+04
Current MIP best bound =  4.6132269570e+04 (gap = 257.361, 0.56%)
Solution time =   40.16 sec.  Iterations = 70263  Nodes = 11149 (401)
Deterministic time = 15636.46 ticks  (389.39 ticks/sec)

CPLEX> Incumbent solution written to file 'C:\Users\llavin\Desktop\test919\logs\tmpizzm26nb.cplex.sol'.
CPLEX> Exporting results... 
